QBPP_HJ+_40_025_06_1
40 301 63
31 1 2 7 43 40 37 25 23 21 13 1 15 45 3 6 12 37 41 12 34 12 36 34 22 49 19 16 30 6 10 31 27 19 4 37 36 21 34 11
    0    0    0    0    0   36    0    0   62    0    0    3    6   74    0    0    0    0    0    0    0    0   94    0    0   78    0    0   54    0    0    0    0    0    0    0    0    0    0    0
    0    0    0    0    0   40   53    0    0    0   59    0   42   74    0    0   10    0    0    0    0   84    0    0    0   46   58    0    0   65    0    0    0    0    0    0    0    0    0    0
    0    0    0   93    0    0    0   26    0    0    0    0    0    0    0    0    0   74    0    0    0    0    0    0    0    0    0    0    0    0    0   34    0    0    0    0    0   40    0    0
    0    0   93    0    0    0    0   81    0    0    0    0    0   82    0    0    0    0    0    0   95    0    0    0   49    0    0    0    0    0    0    0    0    0    0    0   34   68    0   37
    0    0    0    0    0   54    0    0    5   38    0    0    0    0    0   20   21   88   75    0    0   78   36    0    0   78    0    0    0    0    0    0    0    0   67    0   99    0    0    0
   36   40    0    0   54    0    0    0    0    0    0    0    2    0    0    0   25    0   24   97   58    0    0   54    0    0    0    2    0    0    0    0    0    0    0    0    0   29    0    0
    0   53    0    0    0    0    0    0    0    0    0    0    0   20    0    0    0   20    0    0    0    0    0    0    0   44   36    0    0    0    0    0   83    0   39    0    0    0   51    0
    0    0   26   81    0    0    0    0   41    0    0    0    0    0    0    0   15    0    0   60   15    0   45    0   93    0    0   71    0   52    0    0   71    0    0   51    0    0    0    0
   62    0    0    0    5    0    0   41    0    0    0   55   38    0    0    0   16    0    0    0    0    0    0    0    0   17    0    0    0   21    0    0   35    0    0    0    0    0    0    0
    0    0    0    0   38    0    0    0    0    0   47    0    0    0    0   56   67    0    0    0    0   46    0    0    0    0    0    0    0    0   88    0    0    0    0    0    0    0    0    0
    0   59    0    0    0    0    0    0    0   47    0    0   66    0   98    0    0   77    0    0   57    0    0    0    0    0   58    0    0    0    0    0   71    0    0   19    0    0    0   64
    3    0    0    0    0    0    0    0   55    0    0    0    0    0   90    0    0   36    0   25   42    0    0    0    0    0   83    0    0   86    0   27    0    0    0   23    0    0    0    0
    6   42    0    0    0    2    0    0   38    0   66    0    0   11    0    0    0    0    0    0   57    0    0    0   96   12   10   36    0    0    0    0    0    0    0    0    0    0    0   56
   74   74    0   82    0    0   20    0    0    0    0    0   11    0    0    0    0    0   95    0   38    0   38    0    0    0    0    0   17    0   16    0    0    0    0    0    0   19    0    0
    0    0    0    0    0    0    0    0    0    0   98   90    0    0    0    0    0    0   67    0    0    0    0    0    0    9   82   44    0    0    0    0   32    0    0    0    0    0   56    0
    0    0    0    0   20    0    0    0    0   56    0    0    0    0    0    0    0    0   91   62   45    0   31    0    0   79    0   57   18    0    0    0    0    0    0    0    0   75    0   16
    0   10    0    0   21   25    0   15   16   67    0    0    0    0    0    0    0   90    0   45    0    0    0    0    0   67    0    0    0   29    0   12    0    0   49    0   30    0    0    0
    0    0   74    0   88    0   20    0    0    0   77   36    0    0    0    0   90    0   49    0    0    3    0    0    0   92    0   19    0   63   61   12    0    0   14    0    0    0    0    0
    0    0    0    0   75   24    0    0    0    0    0    0    0   95   67   91    0   49    0    0    0    0   27    0    0    0    0   59    0   83    0   36    0    0    0    0    0    0    0    0
    0    0    0    0    0   97    0   60    0    0    0   25    0    0    0   62   45    0    0    0    0    0    0   31    0    0    0    0    0    0    0    0    0    0    0    0   85   81    0    0
    0    0    0   95    0   58    0   15    0    0   57   42   57   38    0   45    0    0    0    0    0    0    3   18   91   53    0   73    0    0   34    0   90    0    0    0    0    0   72   96
    0   84    0    0   78    0    0    0    0   46    0    0    0    0    0    0    0    3    0    0    0    0    0    0   21    0   59    0    0    0    0   17    0   79    0    0    0    0    0   34
   94    0    0    0   36    0    0   45    0    0    0    0    0   38    0   31    0    0   27    0    3    0    0    0    0   48   20    0    0    0    0    0    0    0    0   85   90   34   24    0
    0    0    0    0    0   54    0    0    0    0    0    0    0    0    0    0    0    0    0   31   18    0    0    0    0    0    0    0    0    0    0    0    0    0    0    0    0    0   21    0
    0    0    0   49    0    0    0   93    0    0    0    0   96    0    0    0    0    0    0    0   91   21    0    0    0   75    0   64    0    0   15    0   32    0   63    0    0    0    0    0
   78   46    0    0   78    0   44    0   17    0    0    0   12    0    9   79   67   92    0    0   53    0   48    0   75    0   14   18    0    0    0    0    0    0    0    0    0    0    0    0
    0   58    0    0    0    0   36    0    0    0   58   83   10    0   82    0    0    0    0    0    0   59   20    0    0   14    0   28    0   83    0    0    0    0    0    6    0   97    0    0
    0    0    0    0    0    2    0   71    0    0    0    0   36    0   44   57    0   19   59    0   73    0    0    0   64   18   28    0    0  100    0    0   76    0    0    0    0    0    0    0
   54    0    0    0    0    0    0    0    0    0    0    0    0   17    0   18    0    0    0    0    0    0    0    0    0    0    0    0    0    0   60    0    0   84    0   78    0   44    0    0
    0   65    0    0    0    0    0   52   21    0    0   86    0    0    0    0   29   63   83    0    0    0    0    0    0    0   83  100    0    0    0    0    0    0    0    0   69    0    0    0
    0    0    0    0    0    0    0    0    0   88    0    0    0   16    0    0    0   61    0    0   34    0    0    0   15    0    0    0   60    0    0    0    0    0    0   33    0   40    0   47
    0    0   34    0    0    0    0    0    0    0    0   27    0    0    0    0   12   12   36    0    0   17    0    0    0    0    0    0    0    0    0    0   19    0    0    0    0   50    0   78
    0    0    0    0    0    0   83   71   35    0   71    0    0    0   32    0    0    0    0    0   90    0    0    0   32    0    0   76    0    0    0   19    0    0    0    0    0    0   28   22
    0    0    0    0    0    0    0    0    0    0    0    0    0    0    0    0    0    0    0    0    0   79    0    0    0    0    0    0   84    0    0    0    0    0    0   35    0    0    0   25
    0    0    0    0   67    0   39    0    0    0    0    0    0    0    0    0   49   14    0    0    0    0    0    0   63    0    0    0    0    0    0    0    0    0    0    0    0    0   93   62
    0    0    0    0    0    0    0   51    0    0   19   23    0    0    0    0    0    0    0    0    0    0   85    0    0    0    6    0   78    0   33    0    0   35    0    0    0   62    0    0
    0    0    0   34   99    0    0    0    0    0    0    0    0    0    0    0   30    0    0   85    0    0   90    0    0    0    0    0    0   69    0    0    0    0    0    0    0   58   26   44
    0    0   40   68    0   29    0    0    0    0    0    0    0   19    0   75    0    0    0   81    0    0   34    0    0    0   97    0   44    0   40   50    0    0    0   62   58    0    0    0
    0    0    0    0    0    0   51    0    0    0    0    0    0    0   56    0    0    0    0    0   72    0   24   21    0    0    0    0    0    0    0    0   28    0   93    0   26    0    0   99
    0    0    0   37    0    0    0    0    0    0   64    0   56    0    0   16    0    0    0    0   96   34    0    0    0    0    0    0    0    0   47   78   22   25   62    0   44    0   99    0
